\ File written by Highs .lp filereader
minimize
 obj: -1 x1 -1 x2 -3 x3 -18 x4 -3 x5 -3 x6 -8 x7 -12 x8 -6 x9 -6 x10 -8 x11 -12 x12 -1 x13 -1 x14 -4 x15 -6 x16 -1 x17 -1 x18 -4 x19 -4 x20 -2 x21 -6 x22 -3 x23 -12 x24 -24 x25 -36 x26 -18 x27 -12 x28 -24 x29 -6 x30 -3 x31 -4 x32 -6 x33 -6 x34 -12 x35 -8 x36 -8 x37 -48 x38 -24 x39 -24 x40 -24 x41 -36 x42 -36 x43 -72 x44 -8 x45 -8 x46 -48 x47 -24 x48 -24 x49 -6 x50 -12 x51 -1 x52 -1 x53 -6 x54 -3 x55 -3 x56 -8 x57 -12 x58 -12 x59 -24 x60 -6 x61 -6 x62 -36 x63 -18 x64 -18 x65 -8 x66 -12 x67 -12 x68 -24 x69 -6 x70 -3 x71 -2 x72 -4 x73 -12 x74 -4 x75 
-2 x76 -2 x77 -2 x78 -16 x79 -12 x80 -12 x81 -16 x82 -2 x83 -2 x84 -4 x85 -4 x86 -12 x87 -4 x88 -4 x89 -2 x90 +0 x91 +0 x92 +0 x93 +0 x94 +0 x95 +0 x96 +0 x97 +0 x98 +0 x99 +0 x100 +0 x101 +0 x102 +0 x103 +0 x104 +0 x105 +0 x106 +0 x107 +0 x108 +0 x109 +0 x110 +0 x111 +0 x112 +0 x113 +0 x114 +0 x115 +0 x116 +0 x117 +0 x118 +0 x119 +0 x120 +0 x121 +0 x122 +0 x123 +0 x124 +0 x125 +0 x126 +0 x127 +0 x128 +0 x129 +0 x130 +0 x131 +0 x132 +0 x133 +0 x134 +0 x135 +0 x136 +0 x137 +0 x138 +0 x139 +0 x140 +0 x141 +0 x142 +0 x143 +0 x144 +0 x145 +0 x146 +0 x147 
+0 x148 +0 x149 +0 x150 +0 x151 +0 x152 +0 x153 +0 x154 +0 x155 +0 x156 +0 x157 +0 x158 +0 x159 
st
 con0: +2 x0 +2 x1 +8 x6 +6 x21 +4 x31 = +2
 con1: +3 x1 +6 x2 +12 x7 +6 x21 +6 x33 = +3
 con2: +12 x2 +36 x3 +24 x7 +12 x18 +24 x24 +24 x39 = +12
 con3: +36 x3 +12 x4 +24 x11 +12 x19 +24 x28 +24 x48 = +12
 con4: +6 x4 +6 x5 +12 x15 +6 x20 +24 x48 +12 x50 = +6
 con5: +3 x5 +2 x20 +4 x88 +2 x89 = +1
 con6: +4 x0 +8 x6 +12 x8 +12 x23 +8 x35 = +4
 con7: +4 x1 +8 x6 +12 x7 +12 x9 +8 x36 = +4
 con8: +24 x6 +12 x8 +12 x9 +24 x10 +36 x25 +24 x40 = +12
 con9: +36 x3 +36 x7 +18 x9 +36 x11 +36 x25 +36 x42 = +18
 con10: +12 x8 +8 x10 +4 x12 +12 x27 +8 x44 = +4
 con11: +12 x9 +8 x10 +12 x11 +4 x13 +8 x45 = +4
 con12: +8 x10 +2 x12 +2 x13 +4 x14 +6 x29 = +2
 con13: +6 x4 +12 x11 +3 x13 +6 x15 +6 x29 = +3
 con14: +2 x12 +4 x14 +2 x16 +8 x44 +6 x49 = +2
 con15: +2 x13 +4 x14 +6 x15 +2 x17 +8 x45 = +2
 con16: +4 x14 +2 x16 +2 x17 +8 x65 +6 x69 = +2
 con17: +6 x5 +6 x15 +3 x17 +12 x67 +6 x69 = +3
 con18: +3 x2 +4 x18 +2 x71 +2 x77 = +1
 con19: +18 x3 +12 x18 +12 x19 +12 x73 +12 x80 = +6
 con20: +3 x4 +4 x19 +2 x20 +2 x75 = +1
 con21: +3 x0 +6 x21 +6 x22 +12 x23 +6 x32 = +3
 con22: +6 x2 +12 x21 +6 x22 +24 x24 +12 x34 +6 x71 = +6
 con23: +24 x6 +24 x7 +24 x21 +24 x23 +48 x24 +72 x25 +48 x37 = +24
 con24: +12 x22 +24 x23 +24 x24 +36 x26 +24 x38 +12 x72 = +12
 con25: +18 x8 +36 x23 +36 x25 +36 x26 +36 x27 +36 x41 = +18
 con26: +36 x3 +72 x24 +72 x25 +36 x26 +72 x28 +72 x43 +36 x73 = +36
 con27: +24 x10 +24 x11 +72 x25 +24 x27 +48 x28 +24 x29 +48 x46 = +24
 con28: +36 x26 +24 x27 +24 x28 +12 x30 +24 x47 +12 x74 = +12
 con29: +3 x12 +12 x27 +6 x29 +6 x30 +6 x49 = +3
 con30: +6 x4 +24 x28 +12 x29 +6 x30 +12 x50 +6 x75 = +6
 con31: +2 x0 +4 x31 +6 x32 +8 x35 +2 x51 = +2
 con32: +2 x1 +4 x31 +6 x33 +8 x36 +2 x52 = +2
 con33: +12 x21 +12 x31 +12 x32 +12 x33 +24 x34 +48 x37 +12 x53 = +12
 con34: +6 x22 +12 x32 +12 x34 +24 x38 +6 x54 +6 x76 = +6
 con35: +6 x2 +12 x33 +12 x34 +24 x39 +6 x55 +6 x77 = +6
 con36: +16 x6 +16 x31 +16 x35 +16 x36 +48 x37 +48 x40 +16 x56 = +16
 con37: +24 x23 +24 x32 +24 x35 +48 x37 +48 x38 +72 x41 +24 x57 = +24
 con38: +24 x7 +24 x33 +24 x36 +48 x37 +48 x39 +72 x42 +24 x58 = +24
 con39: +48 x24 +48 x34 +96 x37 +48 x38 +48 x39 +144 x43 +48 x59 +48 x78 = +48
 con40: +12 x8 +24 x35 +24 x40 +36 x41 +24 x44 +12 x60 = +12
 con41: +12 x9 +24 x36 +24 x40 +36 x42 +24 x45 +12 x61 = +12
 con42: +72 x25 +144 x37 +72 x40 +72 x41 +72 x42 +144 x43 +144 x46 +72 x62 = +72
 con43: +36 x26 +72 x38 +72 x41 +72 x43 +72 x47 +36 x63 +36 x79 = +36
 con44: +36 x3 +72 x39 +72 x42 +72 x43 +72 x48 +36 x64 +36 x80 = +36
 con45: +16 x10 +16 x14 +48 x40 +16 x44 +16 x45 +48 x46 +16 x65 = +16
 con46: +24 x27 +72 x41 +24 x44 +48 x46 +48 x47 +24 x49 +24 x66 = +24
 con47: +24 x11 +24 x15 +72 x42 +24 x45 +48 x46 +48 x48 +24 x67 = +24
 con48: +48 x28 +144 x43 +96 x46 +48 x47 +48 x48 +48 x50 +48 x68 +48 x81 = +48
 con49: +12 x14 +12 x15 +12 x29 +48 x46 +12 x49 +24 x50 +12 x69 = +12
 con50: +6 x30 +24 x47 +12 x49 +12 x50 +6 x70 +6 x82 = +6
 con51: +4 x31 +2 x51 +2 x52 +6 x53 +8 x56 = +2
 con52: +6 x32 +3 x51 +6 x53 +6 x54 +12 x57 = +3
 con53: +6 x33 +3 x52 +6 x53 +6 x55 +12 x58 = +3
 con54: +12 x34 +12 x53 +6 x54 +6 x55 +24 x59 +6 x83 = +6
 con55: +8 x35 +4 x51 +8 x56 +12 x57 +12 x60 = +4
 con56: +8 x36 +4 x52 +8 x56 +12 x58 +12 x61 = +4
 con57: +48 x37 +24 x53 +24 x56 +24 x57 +24 x58 +48 x59 +72 x62 = +24
 con58: +24 x38 +12 x54 +24 x57 +24 x59 +36 x63 +12 x84 = +12
 con59: +24 x39 +12 x55 +24 x58 +24 x59 +36 x64 +12 x85 = +12
 con60: +24 x40 +24 x56 +12 x60 +12 x61 +36 x62 +24 x65 = +12
 con61: +36 x41 +36 x57 +18 x60 +36 x62 +36 x63 +36 x66 = +18
 con62: +36 x42 +36 x58 +18 x61 +36 x62 +36 x64 +36 x67 = +18
 con63: +72 x43 +72 x59 +72 x62 +36 x63 +36 x64 +72 x68 +36 x86 = +36
 con64: +4 x16 +8 x44 +12 x60 +8 x65 +12 x66 = +4
 con65: +4 x17 +8 x45 +12 x61 +8 x65 +12 x67 = +4
 con66: +48 x46 +72 x62 +24 x65 +24 x66 +24 x67 +48 x68 +24 x69 = +24
 con67: +24 x47 +36 x63 +24 x66 +24 x68 +12 x70 +12 x87 = +12
 con68: +12 x5 +24 x48 +36 x64 +24 x67 +24 x68 +12 x88 = +12
 con69: +3 x16 +6 x49 +12 x66 +6 x69 +6 x70 = +3
 con70: +6 x5 +12 x50 +24 x68 +12 x69 +6 x70 +6 x89 = +6
 con71: +3 x22 +2 x71 +4 x72 +2 x76 = +1
 con72: +8 x18 +24 x24 +8 x71 +8 x72 +24 x73 +16 x78 = +8
 con73: +18 x26 +12 x72 +12 x73 +12 x74 +12 x79 = +6
 con74: +8 x19 +24 x28 +24 x73 +8 x74 +8 x75 +16 x81 = +8
 con75: +3 x30 +4 x74 +2 x75 +2 x82 = +1
 con76: +12 x34 +4 x71 +4 x76 +4 x77 +16 x78 +4 x83 = +4
 con77: +24 x38 +8 x72 +8 x76 +16 x78 +24 x79 +8 x84 = +8
 con78: +8 x18 +24 x39 +8 x77 +16 x78 +24 x80 +8 x85 = +8
 con79: +72 x43 +24 x73 +48 x78 +24 x79 +24 x80 +48 x81 +24 x86 = +24
 con80: +24 x47 +8 x74 +24 x79 +16 x81 +8 x82 +8 x87 = +8
 con81: +8 x19 +8 x20 +24 x48 +24 x80 +16 x81 +8 x88 = +8
 con82: +4 x20 +12 x50 +4 x75 +16 x81 +4 x82 +4 x89 = +4
 con83: +3 x54 +2 x76 +2 x83 +4 x84 = +1
 con84: +3 x55 +2 x77 +2 x83 +4 x85 = +1
 con85: +24 x59 +16 x78 +8 x83 +8 x84 +8 x85 +24 x86 = +8
 con86: +18 x63 +12 x79 +12 x84 +12 x86 +12 x87 = +6
 con87: +18 x64 +12 x80 +12 x85 +12 x86 +12 x88 = +6
 con88: +24 x68 +16 x81 +24 x86 +8 x87 +8 x88 +8 x89 = +8
 con89: +3 x70 +2 x82 +4 x87 +2 x89 = +1
 con90: +1 x1 -1 x21 -1 x90 = +0
 con91: +1 x1 -1 x22 -1 x91 = +0
 con92: +1 x2 -1 x71 -1 x92 = +0
 con93: +1 x3 -1 x39 -1 x93 = +0
 con94: +1 x3 -1 x55 -1 x94 = +0
 con95: +1 x3 -1 x73 -1 x95 = +0
 con96: +1 x3 -1 x78 -1 x96 = +0
 con97: +1 x3 -1 x83 -1 x97 = +0
 con98: +1 x4 -1 x48 -1 x98 = +0
 con99: +1 x4 -1 x64 -1 x99 = +0
 con100: +1 x4 -1 x75 -1 x100 = +0
 con101: +1 x4 -1 x81 -1 x101 = +0
 con102: +1 x4 -1 x86 -1 x102 = +0
 con103: +1 x5 -1 x89 -1 x103 = +0
 con104: +1 x6 -1 x23 -1 x104 = +0
 con105: +1 x6 -1 x31 -1 x105 = +0
 con106: +1 x6 -1 x32 -1 x106 = +0
 con107: +1 x7 -1 x24 -1 x107 = +0
 con108: +1 x7 -1 x33 -1 x108 = +0
 con109: +1 x7 -1 x34 -1 x109 = +0
 con110: +1 x7 -1 x72 -1 x110 = +0
 con111: +1 x7 -1 x76 -1 x111 = +0
 con112: +1 x8 -1 x35 -1 x112 = +0
 con113: +1 x8 -1 x51 -1 x113 = +0
 con114: +1 x9 -1 x25 -1 x114 = +0
 con115: +1 x9 -1 x26 -1 x115 = +0
 con116: +1 x9 -1 x36 -1 x116 = +0
 con117: +1 x9 -1 x37 -1 x117 = +0
 con118: +1 x9 -1 x38 -1 x118 = +0
 con119: +1 x9 -1 x52 -1 x119 = +0
 con120: +1 x9 -1 x53 -1 x120 = +0
 con121: +1 x9 -1 x54 -1 x121 = +0
 con122: +1 x10 -1 x27 -1 x122 = +0
 con123: +1 x10 -1 x40 -1 x123 = +0
 con124: +1 x10 -1 x41 -1 x124 = +0
 con125: +1 x10 -1 x56 -1 x125 = +0
 con126: +1 x10 -1 x57 -1 x126 = +0
 con127: +1 x11 -1 x28 -1 x127 = +0
 con128: +1 x11 -1 x42 -1 x128 = +0
 con129: +1 x11 -1 x43 -1 x129 = +0
 con130: +1 x11 -1 x58 -1 x130 = +0
 con131: +1 x11 -1 x59 -1 x131 = +0
 con132: +1 x11 -1 x74 -1 x132 = +0
 con133: +1 x11 -1 x79 -1 x133 = +0
 con134: +1 x11 -1 x84 -1 x134 = +0
 con135: +1 x12 -1 x44 -1 x135 = +0
 con136: +1 x12 -1 x60 -1 x136 = +0
 con137: +1 x13 -1 x29 -1 x137 = +0
 con138: +1 x13 -1 x30 -1 x138 = +0
 con139: +1 x13 -1 x45 -1 x139 = +0
 con140: +1 x13 -1 x46 -1 x140 = +0
 con141: +1 x13 -1 x47 -1 x141 = +0
 con142: +1 x13 -1 x61 -1 x142 = +0
 con143: +1 x13 -1 x62 -1 x143 = +0
 con144: +1 x13 -1 x63 -1 x144 = +0
 con145: +1 x14 -1 x49 -1 x145 = +0
 con146: +1 x14 -1 x65 -1 x146 = +0
 con147: +1 x14 -1 x66 -1 x147 = +0
 con148: +1 x15 -1 x50 -1 x148 = +0
 con149: +1 x15 -1 x67 -1 x149 = +0
 con150: +1 x15 -1 x68 -1 x150 = +0
 con151: +1 x15 -1 x82 -1 x151 = +0
 con152: +1 x15 -1 x87 -1 x152 = +0
 con153: +1 x17 -1 x69 -1 x153 = +0
 con154: +1 x17 -1 x70 -1 x154 = +0
 con155: +1 x18 -1 x77 -1 x155 = +0
 con156: +1 x19 -1 x80 -1 x156 = +0
 con157: +1 x19 -1 x85 -1 x157 = +0
 con158: +1 x20 -1 x88 -1 x158 = +0
bounds
 +0 <= x0 <= +1
 +0 <= x1 <= +1
 +0 <= x2 <= +1
 +0 <= x3 <= +1
 +0 <= x4 <= +1
 +0 <= x5 <= +1
 +0 <= x6 <= +1
 +0 <= x7 <= +1
 +0 <= x8 <= +1
 +0 <= x9 <= +1
 +0 <= x10 <= +1
 +0 <= x11 <= +1
 +0 <= x12 <= +1
 +0 <= x13 <= +1
 +0 <= x14 <= +1
 +0 <= x15 <= +1
 +0 <= x16 <= +1
 +0 <= x17 <= +1
 +0 <= x18 <= +1
 +0 <= x19 <= +1
 +0 <= x20 <= +1
 +0 <= x21 <= +1
 +0 <= x22 <= +1
 +0 <= x23 <= +1
 +0 <= x24 <= +1
 +0 <= x25 <= +1
 +0 <= x26 <= +1
 +0 <= x27 <= +1
 +0 <= x28 <= +1
 +0 <= x29 <= +1
 +0 <= x30 <= +1
 +0 <= x31 <= +1
 +0 <= x32 <= +1
 +0 <= x33 <= +1
 +0 <= x34 <= +1
 +0 <= x35 <= +1
 +0 <= x36 <= +1
 +0 <= x37 <= +1
 +0 <= x38 <= +1
 +0 <= x39 <= +1
 +0 <= x40 <= +1
 +0 <= x41 <= +1
 +0 <= x42 <= +1
 +0 <= x43 <= +1
 +0 <= x44 <= +1
 +0 <= x45 <= +1
 +0 <= x46 <= +1
 +0 <= x47 <= +1
 +0 <= x48 <= +1
 +0 <= x49 <= +1
 +0 <= x50 <= +1
 +0 <= x51 <= +1
 +0 <= x52 <= +1
 +0 <= x53 <= +1
 +0 <= x54 <= +1
 +0 <= x55 <= +1
 +0 <= x56 <= +1
 +0 <= x57 <= +1
 +0 <= x58 <= +1
 +0 <= x59 <= +1
 +0 <= x60 <= +1
 +0 <= x61 <= +1
 +0 <= x62 <= +1
 +0 <= x63 <= +1
 +0 <= x64 <= +1
 +0 <= x65 <= +1
 +0 <= x66 <= +1
 +0 <= x67 <= +1
 +0 <= x68 <= +1
 +0 <= x69 <= +1
 +0 <= x70 <= +1
 +0 <= x71 <= +1
 +0 <= x72 <= +1
 +0 <= x73 <= +1
 +0 <= x74 <= +1
 +0 <= x75 <= +1
 +0 <= x76 <= +1
 +0 <= x77 <= +1
 +0 <= x78 <= +1
 +0 <= x79 <= +1
 +0 <= x80 <= +1
 +0 <= x81 <= +1
 +0 <= x82 <= +1
 +0 <= x83 <= +1
 +0 <= x84 <= +1
 +0 <= x85 <= +1
 +0 <= x86 <= +1
 +0 <= x87 <= +1
 +0 <= x88 <= +1
 +0 <= x89 <= +1
 +0 <= x90 <= +0
 +0 <= x91 <= +0
 +0 <= x92 <= +0
 +0 <= x93 <= +0
 +0 <= x94 <= +0
 +0 <= x95 <= +0
 +0 <= x96 <= +0
 +0 <= x97 <= +0
 +0 <= x98 <= +0
 +0 <= x99 <= +0
 +0 <= x100 <= +0
 +0 <= x101 <= +0
 +0 <= x102 <= +0
 +0 <= x103 <= +0
 +0 <= x104 <= +0
 +0 <= x105 <= +0
 +0 <= x106 <= +0
 +0 <= x107 <= +0
 +0 <= x108 <= +0
 +0 <= x109 <= +0
 +0 <= x110 <= +0
 +0 <= x111 <= +0
 +0 <= x112 <= +0
 +0 <= x113 <= +0
 +0 <= x114 <= +0
 +0 <= x115 <= +0
 +0 <= x116 <= +0
 +0 <= x117 <= +0
 +0 <= x118 <= +0
 +0 <= x119 <= +0
 +0 <= x120 <= +0
 +0 <= x121 <= +0
 +0 <= x122 <= +0
 +0 <= x123 <= +0
 +0 <= x124 <= +0
 +0 <= x125 <= +0
 +0 <= x126 <= +0
 +0 <= x127 <= +0
 +0 <= x128 <= +0
 +0 <= x129 <= +0
 +0 <= x130 <= +0
 +0 <= x131 <= +0
 +0 <= x132 <= +0
 +0 <= x133 <= +0
 +0 <= x134 <= +0
 +0 <= x135 <= +0
 +0 <= x136 <= +0
 +0 <= x137 <= +0
 +0 <= x138 <= +0
 +0 <= x139 <= +0
 +0 <= x140 <= +0
 +0 <= x141 <= +0
 +0 <= x142 <= +0
 +0 <= x143 <= +0
 +0 <= x144 <= +0
 +0 <= x145 <= +0
 +0 <= x146 <= +0
 +0 <= x147 <= +0
 +0 <= x148 <= +0
 +0 <= x149 <= +0
 +0 <= x150 <= +0
 +0 <= x151 <= +0
 +0 <= x152 <= +0
 +0 <= x153 <= +0
 +0 <= x154 <= +0
 +0 <= x155 <= +0
 +0 <= x156 <= +0
 +0 <= x157 <= +0
 +0 <= x158 <= +0
binary
general
semi
end
